(set-info :smt-lib-version 2.6)
(set-logic QF_UFLRA)
(set-info :source |
MathSat group

|)
(set-info :category "random")
(set-info :status unsat)
(declare-fun x0 () Real)
(declare-fun x1 () Real)
(declare-fun x2 () Real)
(declare-fun x3 () Real)
(declare-fun x4 () Real)
(declare-fun x5 () Real)
(declare-fun x6 () Real)
(declare-fun x7 () Real)
(declare-fun x8 () Real)
(declare-fun x9 () Real)
(declare-fun x10 () Real)
(declare-fun x11 () Real)
(declare-fun x12 () Real)
(declare-fun x13 () Real)
(declare-fun x14 () Real)
(declare-fun x15 () Real)
(declare-fun x16 () Real)
(declare-fun x17 () Real)
(declare-fun x18 () Real)
(declare-fun x19 () Real)
(declare-fun x20 () Real)
(declare-fun x21 () Real)
(declare-fun x22 () Real)
(declare-fun x23 () Real)
(declare-fun x24 () Real)
(declare-fun x25 () Real)
(declare-fun x26 () Real)
(declare-fun x27 () Real)
(declare-fun x28 () Real)
(declare-fun x29 () Real)
(declare-fun f0_1 (Real) Real)
(declare-fun f0_2 (Real Real) Real)
(declare-fun f0_3 (Real Real Real) Real)
(declare-fun f0_4 (Real Real Real Real) Real)
(declare-fun P0 () Bool)
(declare-fun P1 () Bool)
(declare-fun P2 () Bool)
(declare-fun P3 () Bool)
(declare-fun P4 () Bool)
(declare-fun P5 () Bool)
(declare-fun P6 () Bool)
(declare-fun P7 () Bool)
(declare-fun P8 () Bool)
(declare-fun P9 () Bool)
(declare-fun P10 () Bool)
(declare-fun P11 () Bool)
(declare-fun P12 () Bool)
(declare-fun P13 () Bool)
(declare-fun P14 () Bool)
(declare-fun P15 () Bool)
(declare-fun P16 () Bool)
(declare-fun P17 () Bool)
(declare-fun P18 () Bool)
(declare-fun P19 () Bool)
(declare-fun P20 () Bool)
(declare-fun P21 () Bool)
(declare-fun P22 () Bool)
(declare-fun P23 () Bool)
(declare-fun P24 () Bool)
(declare-fun P25 () Bool)
(declare-fun P26 () Bool)
(declare-fun P27 () Bool)
(declare-fun P28 () Bool)
(declare-fun P29 () Bool)
(assert (let ((?v_12 (* 41 x2)) (?v_90 (< (+ (- (* 42 x11) (* 33 x8)) (* 6 x10)) 43)) (?v_15 (* 31 x15)) (?v_16 (* 25 x5)) (?v_22 (< (- (+ (* 11 x19) (* 41 x12)) (* 34 x11)) 43)) (?v_150 (<= (- (+ (* 13 x7) (* 31 x27)) (* 20 x27)) 26)) (?v_44 (f0_1 x11))) (let ((?v_54 (= x13 ?v_44)) (?v_144 (= (f0_2 x27 x26) x12)) (?v_123 (= (f0_1 x12) (f0_1 x22))) (?v_116 (distinct (f0_2 x1 x15) x24)) (?v_84 (distinct (f0_1 x25) (f0_1 x8))) (?v_64 (f0_1 x17))) (let ((?v_125 (distinct x29 ?v_64)) (?v_89 (= (f0_1 x21) (f0_2 x10 x12))) (?v_32 (distinct (f0_2 x7 x14) (f0_2 x27 x17))) (?v_145 (= x12 ?v_64)) (?v_52 (= x16 (f0_2 x9 x19))) (?v_102 (distinct x24 (f0_2 x25 x11))) (?v_113 (= x2 (f0_1 x27))) (?v_70 (= (f0_1 x1) x0)) (?v_1 (f0_1 x28))) (let ((?v_30 (distinct (f0_2 x11 x8) ?v_1)) (?v_7 (distinct ?v_1 ?v_1)) (?v_57 (= x5 (f0_2 x21 x26))) (?v_17 (f0_1 x10))) (let ((?v_101 (distinct ?v_17 x23)) (?v_68 (= ?v_17 (f0_2 x26 x21))) (?v_40 (= (f0_2 x22 x4) (f0_2 x24 x23))) (?v_5 (= x20 (f0_1 x20))) (?v_62 (= (f0_2 x5 x19) (f0_2 x16 x23))) (?v_99 (= (f0_1 x9) ?v_17)) (?v_6 (= ?v_44 (f0_2 x22 x26))) (?v_60 (= x7 (f0_2 x11 x29))) (?v_0 (= x25 (f0_1 x7))) (?v_20 (= (f0_1 x3) (f0_1 x14))) (?v_96 (distinct (f0_2 x4 x16) x25)) (?v_118 (= (f0_2 x23 x4) ?v_1)) (?v_9 (distinct (f0_1 x16) (f0_2 x2 x0))) (?v_2 (= x2 (f0_2 x6 x29))) (?v_94 (not P27))) (let ((?v_31 (not ?v_20)) (?v_81 (not ?v_116)) (?v_10 (not P29)) (?v_41 (not P10)) (?v_8 (not ?v_0)) (?v_24 (not ?v_7)) (?v_18 (not P1)) (?v_13 (not P7)) (?v_119 (not ?v_57)) (?v_26 (not ?v_22)) (?v_37 (not ?v_2)) (?v_69 (not ?v_101)) (?v_95 (not ?v_5)) (?v_114 (not P8)) (?v_107 (not ?v_6)) (?v_71 (not ?v_9)) (?v_143 (not P2)) (?v_35 (not ?v_40)) (?v_92 (not P6)) (?v_105 (not P3)) (?v_120 (not P24)) (?v_23 (not P20)) (?v_97 (not P25)) (?v_48 (not P12)) (?v_110 (not ?v_30)) (?v_42 (not P11)) (?v_86 (not P13)) (?v_115 (not ?v_52)) (?v_45 (not P16)) (?v_72 (not ?v_54)) (?v_108 (not P23)) (?v_112 (not P17)) (?v_56 (not ?v_144)) (?v_58 (not ?v_150)) (?v_59 (not P14)) (?v_155 (not ?v_32)) (?v_74 (not P15)) (?v_111 (not ?v_60)) (?v_103 (not ?v_62)) (?v_93 (not P28)) (?v_78 (not ?v_68)) (?v_73 (not ?v_70)) (?v_79 (not ?v_89)) (?v_154 (not ?v_123)) (?v_83 (not P5)) (?v_124 (not P0)) (?v_117 (not ?v_102)) (?v_133 (not ?v_96)) (?v_121 (not P4)) (?v_127 (not P9)) (?v_153 (not ?v_99)) (?v_122 (not ?v_113)) (?v_129 (not ?v_90)) (?v_135 (not P21)) (?v_131 (not P22)) (?v_126 (not ?v_118)) (?v_140 (not P26)) (?v_141 (not ?v_125)) (?v_146 (not P18)) (?v_148 (not ?v_84)) (?v_151 (not ?v_145)) (?v_152 (not P19)) (?v_29 (<= (+ (- 0 (* 20 x8)) (* 3 x14)) 25))) (let ((?v_100 (not ?v_29)) (?v_50 (<= (+ (* 16 x12) (* 38 x18) (* 6 x20)) 32))) (let ((?v_55 (not ?v_50)) (?v_77 (< (- (+ x19 (* 31 x5)) (* 31 x2)) 10))) (let ((?v_91 (not ?v_77)) (?v_82 (< (+ (* 4 x1) (* 13 x12)) 1))) (let ((?v_104 (not ?v_82)) (?v_66 (< (+ (* (- 31) x28) ?v_12 (* 28 x19)) 33))) (let ((?v_142 (not ?v_66)) (?v_27 (= (+ (* 13 x5) (* 20 x19) (* 17 x23)) (- 19))) (?v_47 (< (+ (- (* (- 6) x2) (* 29 x29)) (* 3 x25)) 39))) (let ((?v_28 (not ?v_47)) (?v_33 (= (- (+ (* (- 41) x5) (* 12 x17)) (* 28 x2)) (- 11)))) (let ((?v_65 (not ?v_33)) (?v_39 (<= (- (+ (* 33 x25) (* 37 x12)) (* 37 x18)) (- 41))) (?v_3 (< (- (- (* 11 x16) (* 21 x5)) (* 14 x28)) (- 29))) (?v_98 (<= (- (+ (* (- 1) x10) (* 37 x5)) (* 20 x11)) (- 3))) (?v_4 (distinct (+ (* (- 20) x0) (* 31 x4) ?v_15) 23))) (let ((?v_51 (not ?v_4)) (?v_19 (= (- (- (* (- 8) x22) (* 37 x14)) ?v_16) 0)) (?v_14 (not ?v_3)) (?v_67 (< (- (- (* (- 32) x27) (* 36 x13)) (* 16 x24)) 7))) (let ((?v_11 (not ?v_67)) (?v_61 (<= (+ (* 41 x1) x25 ?v_12) (- 6)))) (let ((?v_46 (not ?v_61)) (?v_88 (< (+ (* 7 x10) (* 26 x21) (* 16 x6)) (- 34)))) (let ((?v_36 (not ?v_88)) (?v_80 (< (- (+ (* 36 x1) (* 41 x15)) (* 6 x18)) (- 14))) (?v_38 (= (- (- (* (- 6) x11) (* 36 x25)) (* 16 x9)) (- 5)))) (let ((?v_134 (not ?v_38)) (?v_76 (< (- (+ (* (- 33) x5) ?v_15) (* 37 x15)) 27)) (?v_21 (<= (+ (- ?v_16 (* 16 x11)) (* 20 x21)) (- 6)))) (let ((?v_25 (not ?v_21)) (?v_85 (< (+ (- (* (- 24) x15) (* 28 x4)) (* 31 x12)) 33))) (let ((?v_63 (not ?v_85)) (?v_43 (not ?v_19)) (?v_138 (<= (+ (- (* (- 42) x6) (* 20 x17)) (* 10 x9)) 33))) (let ((?v_53 (not ?v_138)) (?v_49 (< (- (- (* (- 37) x3) (* 6 x14)) (* 9 x22)) 20)) (?v_34 (< (+ (- (* (- 18) x28) (* 10 x18)) (* 19 x2)) (- 15))) (?v_75 (< (+ (- (* 7 x16) (* 7 x21)) (* 11 x1)) (- 27))) (?v_132 (not ?v_39)) (?v_137 (< (+ (- (* 24 x16) (* 16 x5)) (* 29 x19)) (- 18))) (?v_106 (= (- (+ (* (- 30) x6) (* 18 x2)) (* 42 x20)) 24))) (let ((?v_87 (not ?v_106)) (?v_109 (not ?v_75)) (?v_130 (not ?v_80)) (?v_128 (not ?v_98)) (?v_136 (not ?v_34)) (?v_149 (not ?v_49)) (?v_139 (not ?v_76)) (?v_147 (not ?v_137)) (?v_158 (or ?v_11 ?v_72)) (?v_157 (or ?v_34 ?v_82)) (?v_156 (not ?v_27))) (and (and (and (and (and (and (and (and (and (and (and (and (and (and (and (and (and (and (and (and (and (and (and (and (and (and (and (and (and (and (and (and (and (and (and (and (and (and (and (and (and (and (and (and (and (and (and (and (and (and (and (and (and (and (and (and (and (and (and (and (and (and (and (and (and (and (and (and (and (and (and (and (and (and (and (and (and (and (and (and (and (and (and (and (and (and (and (and (and (and (and (and (and (and (and (and (and (and (and (and (and (and (and (and (and (and (and (and (and (and (and (and (and (and (and (and (and (and (and (and (and (and (and (and (and (and (and (and (and (and (and (and (and (and (and (and (and (and (and (and (and (and (and (and (and (and (and (and (and (and (and (and (and (and (and (and (and (and (and (and (and (and (and (and (and (and (and (and (and (and (and (and (and (and (and (and (and (and (and (and (and (and (and (and (and (and (and (and (and (and (and (and (and (and (and (and (and (and (and (and (and (and (and (and (and (and (and (and (and (and (and (and (and (and (and (and (and (and (and (and (and (and (and (and (and (and (and (and (and (and (and (and (and (and (and (and (and (and (and (and (and (and (and (and (and (and (and (and (and (and (and (and (and (and (and (and (and (and (and (and (and (and (and (and (and (and (and (and (and (and (and (and (and (and (and (and (and (and (and (and (and (and (and (and (and (and (and (and (and (and (and (and (and (and (and (and (and (and (and (and (and (and (and (and (and (and (and (and (and (and (and (and (and (and (and (and (and (and (and (and (and (and (and (and (and (and (and (and (and (and (and (and (and (and (and (and (and (and (and (and (and (and (and (and (and (and (and (and (and (and (and (and (and (and (and (and (and (and (and (and (and (and (and (and (and (and (and (and (and (and (and (and (and (and (and (and (and (and (and (and (and (and (and (and (and (and (and (and (and (and (and (and (and (and (and (and (and (and (and (and (and (and (and (and (and (and (and (and (and (and (and (and (and (and (and (and (and (and (and (and (and (and (and (and (and (and (and (and (and (and (and (and (and (and (and (and (and (and (and (and (and (and (and (and (and (and (and (and (and (or (or ?v_94 ?v_142) ?v_27) (or (or P1 ?v_9) ?v_28)) (or (or ?v_31 ?v_81) ?v_10)) (or (or ?v_65 ?v_0) ?v_2)) (or (or ?v_41 P26) ?v_8)) (or (or ?v_24 ?v_39) ?v_18)) (or (or ?v_13 P13) ?v_119)) (or (or ?v_3 ?v_26) ?v_37)) (or (or ?v_98 ?v_69) ?v_95)) (or (or ?v_30 ?v_6) P26)) (or (or ?v_51 ?v_19) ?v_3)) (or (or P14 ?v_114) ?v_4)) (or (or ?v_5 ?v_107) P23)) (or (or ?v_7 ?v_14) ?v_8)) (or (or ?v_11 ?v_71) ?v_10)) (or (or ?v_11 ?v_46) ?v_143)) (or (or ?v_36 ?v_13) P21)) (or (or ?v_62 ?v_80) ?v_35)) (or (or ?v_134 ?v_14) ?v_29)) (or (or ?v_76 ?v_11) ?v_25)) (or (or ?v_68 ?v_63) ?v_92)) (or (or ?v_102 ?v_18) ?v_105)) (or (or P28 ?v_120) ?v_43)) (or (or P21 P21) ?v_19)) (or (or P13 ?v_32) ?v_53)) (or (or ?v_23 ?v_2) ?v_20)) (or (or ?v_5 ?v_97) ?v_21)) (or (or ?v_48 ?v_22) ?v_49)) (or (or ?v_23 ?v_23) ?v_24)) (or (or ?v_34 P15) ?v_25)) (or (or ?v_26 ?v_27) ?v_75)) (or (or ?v_9 ?v_28) ?v_100)) (or (or ?v_110 ?v_31) ?v_42)) (or (or ?v_32 ?v_33) ?v_27)) (or (or ?v_34 ?v_35) ?v_36)) (or (or ?v_60 ?v_22) P27)) (or (or ?v_37 ?v_4) ?v_86)) (or (or ?v_27 ?v_115) ?v_45)) (or (or P8 ?v_6) ?v_38)) (or (or ?v_132 P25) ?v_40)) (or (or ?v_33 ?v_41) ?v_42)) (or (or P27 ?v_43) ?v_55)) (or (or ?v_72 ?v_108) ?v_19)) (or (or ?v_45 ?v_46) ?v_47)) (or (or ?v_70 ?v_48) ?v_137)) (or (or P12 ?v_112) ?v_56)) (or (or ?v_49 P25) ?v_50)) (or (or P13 P20) ?v_51)) (or (or ?v_52 ?v_53) ?v_29)) (or (or ?v_58 ?v_21) ?v_59)) (or (or ?v_125 ?v_87) ?v_48)) (or (or ?v_84 ?v_3) ?v_33)) (or (or ?v_155 ?v_91) ?v_74)) (or (or P8 ?v_9) ?v_54)) (or (or ?v_99 P15) ?v_55)) (or (or ?v_56 ?v_57) ?v_58)) (or (or P26 P22) ?v_26)) (or (or ?v_59 P14) ?v_111)) (or (or ?v_61 ?v_35) ?v_103)) (or (or ?v_63 ?v_3) ?v_145)) (or (or ?v_3 P21) ?v_65)) (or (or ?v_66 P20) ?v_67)) (or (or ?v_104 ?v_53) P8)) (or (or ?v_2 ?v_93) ?v_33)) (or (or ?v_46 ?v_36) ?v_78)) (or (or ?v_69 P13) P23)) (or (or ?v_73 ?v_71) P8)) (or (or ?v_72 ?v_73) ?v_74)) (or (or ?v_109 P28) P13)) (or (or ?v_76 ?v_90) ?v_79)) (or (or ?v_77 P6) ?v_78)) (or (or ?v_79 ?v_46) P17)) (or (or ?v_58 P26) ?v_130)) (or (or ?v_33 ?v_19) ?v_154)) (or (or ?v_81 ?v_83) P24)) (or (or ?v_82 ?v_83) ?v_59)) (or (or ?v_3 ?v_51) ?v_57)) (or (or ?v_41 P5) ?v_5)) (or (or ?v_26 P13) ?v_27)) (or (or P18 ?v_67) ?v_84)) (or (or ?v_47 ?v_25) ?v_85)) (or (or ?v_48 ?v_86) ?v_33)) (or (or ?v_87 ?v_67) ?v_88)) (or (or ?v_34 ?v_96) ?v_89)) (or (or ?v_29 ?v_90) ?v_91)) (or (or ?v_62 ?v_46) ?v_45)) (or (or ?v_92 P24) ?v_37)) (or (or ?v_93 ?v_94) ?v_20)) (or (or ?v_95 ?v_96) ?v_33)) (or (or P14 ?v_84) ?v_92)) (or (or P24 ?v_42) ?v_87)) (or (or ?v_42 P28) ?v_0)) (or (or ?v_97 ?v_30) ?v_124)) (or (or ?v_128 P20) ?v_99)) (or (or P28 P15) ?v_92)) (or (or ?v_100 ?v_54) ?v_101)) (or (or P7 ?v_117) ?v_103)) (or (or ?v_76 ?v_75) P28)) (or (or P25 ?v_133) ?v_59)) (or (or ?v_60 ?v_88) ?v_19)) (or (or ?v_55 ?v_121) ?v_104)) (or (or ?v_94 ?v_92) ?v_2)) (or (or P18 ?v_105) P29)) (or (or ?v_127 ?v_21) ?v_36)) (or (or ?v_46 ?v_52) ?v_7)) (or (or ?v_37 ?v_95) ?v_106)) (or (or ?v_98 ?v_93) P3)) (or (or ?v_107 P7) ?v_30)) (or (or ?v_89 P10) P21)) (or (or ?v_38 ?v_29) P25)) (or (or P13 P23) ?v_78)) (or (or ?v_83 ?v_90) ?v_70)) (or (or ?v_105 ?v_71) ?v_84)) (or (or ?v_34 ?v_108) ?v_98)) (or (or P2 ?v_53) ?v_104)) (or (or ?v_109 P2) ?v_21)) (or (or ?v_67 ?v_8) ?v_48)) (or (or ?v_53 ?v_104) ?v_110)) (or (or ?v_153 ?v_27) ?v_111)) (or (or P26 ?v_112) ?v_113)) (or (or ?v_29 P20) ?v_102)) (or (or ?v_3 ?v_67) ?v_91)) (or (or ?v_98 ?v_104) ?v_71)) (or (or P18 ?v_122) ?v_114)) (or (or ?v_115 ?v_116) ?v_10)) (or (or ?v_129 P16) P17)) (or (or P25 ?v_135) P19)) (or (or ?v_74 ?v_0) ?v_49)) (or (or P0 ?v_38) ?v_80)) (or (or ?v_116 ?v_84) ?v_65)) (or (or ?v_3 ?v_85) P14)) (or (or ?v_118 ?v_81) ?v_72)) (or (or ?v_104 P5) ?v_95)) (or (or P15 P8) ?v_104)) (or (or ?v_113 ?v_117) ?v_57)) (or (or ?v_118 ?v_117) ?v_43)) (or (or ?v_52 ?v_77) ?v_92)) (or (or ?v_91 ?v_136) ?v_46)) (or (or ?v_103 ?v_58) ?v_119)) (or (or ?v_96 ?v_66) ?v_120)) (or (or ?v_131 ?v_23) ?v_109)) (or (or ?v_121 ?v_26) P11)) (or (or ?v_122 ?v_13) ?v_48)) (or (or ?v_126 ?v_109) P19)) (or (or P28 ?v_123) ?v_108)) (or (or ?v_124 ?v_21) P14)) (or (or ?v_13 ?v_39) ?v_109)) (or (or ?v_118 ?v_37) ?v_47)) (or (or ?v_62 ?v_140) ?v_69)) (or (or ?v_40 ?v_125) ?v_36)) (or (or ?v_126 ?v_127) ?v_128)) (or (or ?v_115 ?v_129) ?v_47)) (or (or ?v_101 ?v_130) ?v_27)) (or (or P11 ?v_86) ?v_56)) (or (or ?v_104 ?v_100) ?v_13)) (or (or ?v_14 ?v_131) ?v_115)) (or (or ?v_29 ?v_120) ?v_141)) (or (or ?v_79 ?v_66) ?v_27)) (or (or P6 ?v_33) ?v_132)) (or (or ?v_82 ?v_133) ?v_134)) (or (or ?v_133 ?v_67) ?v_63)) (or (or ?v_73 ?v_127) ?v_3)) (or (or ?v_75 ?v_129) P2)) (or (or P4 ?v_149) ?v_11)) (or (or ?v_93 ?v_10) P16)) (or (or ?v_98 ?v_135) P3)) (or (or ?v_58 ?v_146) ?v_136)) (or (or ?v_115 ?v_139) ?v_95)) (or (or ?v_67 ?v_137) ?v_138)) (or (or ?v_63 ?v_139) ?v_71)) (or (or ?v_66 P3) ?v_27)) (or (or ?v_106 ?v_100) ?v_37)) (or (or ?v_115 ?v_140) ?v_89)) (or (or ?v_122 ?v_20) ?v_23)) (or (or ?v_8 ?v_58) ?v_52)) (or (or ?v_120 P19) ?v_127)) (or (or ?v_21 ?v_128) ?v_141)) (or (or ?v_133 ?v_62) ?v_142)) (or (or ?v_47 P27) ?v_143)) (or (or ?v_132 ?v_126) ?v_92)) (or (or ?v_124 ?v_148) ?v_81)) (or (or ?v_103 P5) ?v_11)) (or (or ?v_127 ?v_46) ?v_147)) (or (or P6 ?v_51) ?v_10)) (or (or ?v_86 ?v_39) ?v_79)) (or (or ?v_94 ?v_20) ?v_144)) (or (or ?v_121 P23) P17)) (or (or ?v_11 ?v_28) ?v_30)) (or (or ?v_126 ?v_87) ?v_136)) (or (or ?v_50 P24) ?v_20)) (or (or ?v_30 ?v_11) ?v_134)) (or (or ?v_65 ?v_40) ?v_61)) (or (or ?v_32 P2) ?v_118)) (or (or ?v_78 P22) ?v_96)) (or (or ?v_20 ?v_145) ?v_49)) (or (or P23 ?v_98) ?v_89)) (or (or ?v_31 ?v_28) ?v_35)) (or (or ?v_5 ?v_146) ?v_11)) (or (or ?v_57 ?v_121) ?v_23)) (or (or ?v_126 ?v_18) ?v_19)) (or (or ?v_109 ?v_105) P21)) (or (or ?v_147 P13) ?v_119)) (or (or ?v_151 ?v_43) ?v_69)) (or (or ?v_135 ?v_46) ?v_9)) (or (or ?v_8 ?v_141) ?v_30)) (or (or ?v_121 P10) ?v_26)) (or (or ?v_65 ?v_137) ?v_80)) (or (or ?v_97 ?v_134) ?v_69)) (or (or ?v_25 ?v_69) P12)) (or (or ?v_57 P22) ?v_36)) (or (or ?v_95 ?v_31) ?v_7)) (or (or P12 ?v_53) ?v_135)) (or (or ?v_100 ?v_120) ?v_104)) (or (or ?v_80 ?v_101) P16)) (or (or ?v_27 ?v_143) ?v_90)) (or (or ?v_132 ?v_10) P9)) (or (or ?v_79 ?v_26) P29)) (or (or P11 ?v_28) P26)) (or (or ?v_125 P9) ?v_52)) (or (or ?v_8 ?v_140) ?v_148)) (or (or ?v_106 ?v_14) ?v_102)) (or (or ?v_129 P14) ?v_27)) (or (or ?v_51 ?v_129) ?v_143)) (or (or ?v_141 ?v_117) P17)) (or (or P8 ?v_13) ?v_107)) (or (or ?v_97 ?v_47) ?v_79)) (or (or ?v_117 ?v_33) ?v_97)) (or (or P19 ?v_70) P29)) (or (or ?v_70 ?v_67) ?v_14)) (or (or ?v_100 ?v_118) P6)) (or (or ?v_152 ?v_96) ?v_7)) (or (or ?v_114 ?v_65) P28)) (or (or ?v_120 ?v_118) ?v_130)) (or (or ?v_101 ?v_141) ?v_9)) (or (or ?v_27 ?v_149) ?v_14)) (or (or ?v_40 ?v_49) ?v_106)) (or (or ?v_30 P8) ?v_126)) (or (or ?v_40 ?v_77) ?v_128)) (or (or ?v_21 P17) ?v_116)) (or (or ?v_43 ?v_36) ?v_74)) (or (or ?v_62 ?v_21) P29)) (or (or ?v_41 ?v_134) ?v_50)) (or (or ?v_39 ?v_126) ?v_51)) (or (or ?v_36 P25) ?v_113)) (or (or ?v_14 ?v_58) P5)) (or (or ?v_114 ?v_5) ?v_130)) (or (or ?v_27 ?v_46) ?v_62)) (or (or ?v_125 ?v_5) ?v_114)) (or (or ?v_126 P2) ?v_68)) (or (or P22 P28) ?v_79)) (or (or ?v_98 ?v_18) P24)) (or (or P9 ?v_62) P7)) (or (or ?v_117 ?v_63) ?v_123)) (or (or ?v_89 ?v_23) ?v_11)) (or (or ?v_42 ?v_150) ?v_111)) (or (or P2 ?v_54) P3)) (or (or ?v_91 ?v_144) ?v_71)) (or (or ?v_11 ?v_67) ?v_92)) (or (or P24 ?v_101) ?v_35)) (or (or ?v_75 ?v_19) ?v_21)) (or (or ?v_13 ?v_146) ?v_151)) (or (or ?v_43 ?v_10) ?v_92)) (or (or ?v_97 P19) ?v_4)) (or (or P25 ?v_82) ?v_47)) (or (or ?v_139 ?v_132) ?v_79)) (or (or ?v_127 ?v_76) ?v_133)) (or (or P24 ?v_38) ?v_43)) (or (or ?v_74 ?v_25) ?v_13)) (or (or ?v_131 ?v_136) P3)) (or (or ?v_102 ?v_63) ?v_87)) (or (or ?v_142 ?v_25) P15)) (or (or ?v_38 ?v_30) ?v_66)) (or (or ?v_41 ?v_135) P2)) (or (or ?v_27 ?v_114) ?v_130)) (or (or ?v_140 ?v_57) ?v_78)) (or (or ?v_4 ?v_10) P28)) (or (or ?v_109 ?v_4) ?v_141)) (or (or ?v_36 ?v_142) P24)) (or (or ?v_58 P15) ?v_26)) (or (or ?v_119 ?v_74) ?v_46)) (or (or ?v_26 ?v_99) ?v_40)) (or (or ?v_35 ?v_30) P0)) (or (or P1 ?v_139) ?v_72)) (or (or ?v_115 P24) ?v_58)) (or (or ?v_103 ?v_106) ?v_152)) (or (or ?v_104 ?v_26) ?v_122)) (or (or ?v_84 ?v_121) P24)) (or (or ?v_14 ?v_71) ?v_102)) (or (or ?v_42 ?v_33) ?v_10)) (or (or ?v_22 ?v_60) ?v_130)) (or (or ?v_109 ?v_77) ?v_140)) (or (or ?v_106 P9) P27)) (or (or ?v_127 P22) P26)) (or (or ?v_91 ?v_82) P1)) (or (or ?v_0 ?v_97) ?v_4)) (or (or ?v_40 ?v_152) P27)) (or (or ?v_23 ?v_47) ?v_143)) (or (or ?v_137 ?v_147) ?v_28)) (or (or ?v_21 ?v_14) ?v_113)) (or (or ?v_38 ?v_42) ?v_117)) (or (or ?v_7 P5) ?v_19)) (or (or ?v_87 ?v_125) ?v_143)) (or ?v_158 P18)) (or (or ?v_153 ?v_52) ?v_53)) (or (or ?v_0 ?v_130) ?v_13)) (or (or P11 ?v_68) ?v_60)) (or (or ?v_40 ?v_93) ?v_59)) (or (or ?v_121 P16) ?v_111)) (or (or P11 ?v_10) ?v_78)) (or (or ?v_49 ?v_154) ?v_152)) (or (or ?v_66 ?v_34) ?v_5)) (or (or ?v_81 ?v_93) ?v_78)) (or (or ?v_39 ?v_47) ?v_4)) (or (or ?v_19 ?v_22) ?v_3)) (or (or ?v_43 ?v_69) ?v_6)) (or (or ?v_132 ?v_56) ?v_92)) (or (or ?v_140 ?v_65) ?v_28)) (or (or ?v_47 ?v_142) ?v_107)) (or (or ?v_116 ?v_4) P12)) (or (or P5 ?v_20) ?v_79)) (or (or ?v_83 ?v_21) ?v_126)) (or (or ?v_91 ?v_66) ?v_101)) (or (or ?v_54 ?v_126) ?v_23)) (or (or ?v_36 ?v_81) ?v_73)) (or (or ?v_57 P1) ?v_125)) (or (or ?v_144 ?v_118) ?v_76)) (or (or ?v_25 ?v_14) ?v_26)) (or (or ?v_6 ?v_42) ?v_0)) (or (or P13 P19) ?v_109)) (or (or ?v_136 ?v_141) P20)) (or (or ?v_65 ?v_30) ?v_145)) (or (or ?v_96 ?v_27) ?v_114)) (or (or ?v_25 ?v_31) ?v_92)) (or (or ?v_28 P19) ?v_125)) (or (or ?v_117 ?v_28) ?v_109)) (or (or ?v_125 ?v_138) ?v_78)) (or (or P18 ?v_145) ?v_121)) (or (or ?v_7 ?v_53) P7)) (or (or P24 P23) ?v_123)) (or (or ?v_129 ?v_113) ?v_5)) (or ?v_157 ?v_115)) (or (or P18 ?v_74) ?v_40)) (or (or ?v_59 P27) ?v_41)) (or (or P11 ?v_97) ?v_48)) (or (or ?v_37 P19) ?v_151)) (or (or ?v_38 ?v_142) ?v_145)) (or (or P13 P8) ?v_143)) (or (or P1 ?v_140) ?v_115)) (or (or ?v_34 ?v_125) ?v_130)) (or (or ?v_6 ?v_3) ?v_10)) (or (or ?v_155 ?v_113) ?v_145)) (or (or ?v_110 ?v_101) ?v_136)) (or (or ?v_129 ?v_60) ?v_25)) (or (or ?v_149 ?v_112) ?v_83)) (or (or ?v_140 ?v_156) P23)) (or (or ?v_35 ?v_127) ?v_91)) (or (or ?v_97 ?v_22) ?v_142)) (or (or ?v_25 ?v_89) ?v_63)) (or (or ?v_41 ?v_56) P24)) (or (or ?v_33 ?v_71) P21)) (or (or ?v_57 ?v_79) ?v_46)) (or (or P16 ?v_11) ?v_52)) (or (or P8 ?v_69) ?v_99)) (or (or ?v_9 ?v_59) P21)) (or (or ?v_130 ?v_7) ?v_56)) (or (or ?v_115 ?v_82) P2)) (or (or ?v_76 ?v_24) ?v_30)) (or (or P26 ?v_149) ?v_47)) (or (or ?v_146 ?v_96) ?v_116)) (or (or ?v_152 ?v_112) ?v_144)) (or (or P12 ?v_130) ?v_132)) (or (or ?v_107 ?v_101) P18)) (or (or ?v_155 ?v_132) ?v_20)) (or (or ?v_36 ?v_71) ?v_20)) (or (or ?v_46 ?v_86) ?v_137)) (or (or P25 ?v_27) ?v_147)) (or (or ?v_39 ?v_117) ?v_6)) (or (or P12 P17) ?v_93)) (or (or P14 ?v_126) ?v_3)) (or (or P21 P28) ?v_7)) (or (or ?v_48 ?v_149) P23)) (or (or ?v_102 ?v_89) ?v_152)) (or (or ?v_115 ?v_126) P10)) (or (or ?v_94 ?v_6) ?v_5)) (or (or ?v_103 ?v_130) P29)) (or (or ?v_90 ?v_147) ?v_61)) (or (or ?v_29 ?v_96) ?v_99)) (or (or ?v_121 ?v_110) ?v_36)) (or (or ?v_102 ?v_103) P24)) (or (or ?v_142 ?v_69) ?v_123)) (or (or ?v_68 ?v_149) ?v_55)) (or (or ?v_141 ?v_62) ?v_97)) (or (or ?v_83 ?v_116) ?v_9)) (or (or ?v_99 ?v_27) ?v_83)) (or (or ?v_121 ?v_122) ?v_30)) (or (or ?v_30 ?v_98) ?v_101)) (or (or ?v_50 ?v_63) P16)) (or (or P24 ?v_21) ?v_29)) (or (or ?v_9 ?v_47) ?v_3)) (or (or ?v_0 ?v_53) ?v_131)) (or (or ?v_113 ?v_136) ?v_63)) (or (or P3 P19) ?v_10)) (or (or ?v_25 ?v_3) ?v_81)) (or (or ?v_31 ?v_79) ?v_22)) (or (or ?v_10 ?v_0) ?v_77)) (or (or ?v_46 ?v_80) ?v_31)) (or (or ?v_139 ?v_114) ?v_66)) (or (or P13 ?v_96) ?v_58)) (or (or ?v_47 ?v_145) ?v_3)) (or (or ?v_48 ?v_130) ?v_133)) (or (or ?v_48 ?v_4) ?v_117)) (or (or ?v_51 P7) ?v_67)) (or (or ?v_28 P11) ?v_86)) (or (or P27 ?v_83) ?v_33)) (or (or ?v_36 P6) ?v_124)) (or (or ?v_70 ?v_65) ?v_133)) (or (or P26 P3) ?v_141)) (or (or ?v_27 ?v_125) ?v_11)) (or (or ?v_106 ?v_145) ?v_29)) (or (or ?v_156 ?v_21) ?v_83)) (or (or ?v_20 ?v_69) ?v_122)) (or (or ?v_108 ?v_20) ?v_48)) (or (or ?v_106 ?v_96) ?v_95)) (or (or ?v_14 ?v_89) ?v_52)) (or (or ?v_111 ?v_11) ?v_69)) (or (or ?v_40 P5) ?v_29)) (or (or ?v_36 ?v_32) ?v_139)) (or (or ?v_65 ?v_148) ?v_127)) (or (or ?v_0 ?v_29) ?v_42)) (or (or P8 ?v_70) P24)) (or (or ?v_146 ?v_42) ?v_14)) (or (or ?v_99 ?v_72) ?v_124)) (or ?v_157 P0)) (or (or ?v_19 P28) ?v_117)) (or (or P29 ?v_42) ?v_118)) (or (or P28 ?v_0) ?v_90)) (or (or P3 ?v_11) ?v_89)) (or (or ?v_63 ?v_129) P12)) (or (or P8 ?v_30) ?v_38)) (or ?v_158 ?v_18)) (or (or ?v_145 P23) ?v_83)) (or (or ?v_72 ?v_144) ?v_40)) (or (or ?v_106 ?v_20) ?v_0)) (or (or ?v_38 P26) ?v_51)) (or (or ?v_23 ?v_130) ?v_31)) (or (or ?v_37 ?v_147) P23)) (or (or ?v_25 ?v_140) P16)) (or (or ?v_126 ?v_114) ?v_81)) (or (or ?v_94 ?v_86) ?v_147)) (or (or ?v_72 ?v_92) P5)))))))))))))))))))))))))
(check-sat)
(exit)
